c instance by G2
c solution = 00001111111101110
c Known solution cost is 950 
p cnf 17 30
w 21 93 57 27 41 90 82 73 95 68 9 38 40 83 35 25 73
5 12 2 0
2 -1 11 0
-6 -12 10 0
-17 1 9 0
8 13 -7 0
10 -7 -9 0
-17 -13 2 0
2 -11 -17 0
-2 -10 1 0
-4 -12 -15 0
-9 5 -15 0
-10 -11 6 0
3 -11 7 0
15 17 -14 0
-11 -3 -16 0
-16 -10 -2 0
-3 10 6 0
-6 11 3 0
-13 4 -14 0
15 -14 1 0
2 12 -9 0
-14 -12 -17 0
-16 2 -13 0
3 9 5 0
2 16 4 0
-7 -1 13 0
9 -11 1 0
-13 5 14 0
-6 13 -3 0
-15 14 -5 0
